&bands
  prefix='cutoff_50', outdir='./tmp_cutoff_50', filband='silicon.bands.dat'
/
