&bands
  prefix='kmesh_8', outdir='./tmp_kmesh_8', filband='silicon.bands.dat'
/
