&bands
  prefix='kmesh_6', outdir='./tmp_kmesh_6', filband='silicon.bands.dat'
/
