&bands
  prefix='kmesh_4', outdir='./tmp_kmesh_4', filband='silicon.bands.dat'
/
